
  32    4
  10   10   10   10

   0   0   0   0   0   3 2 18 31 
   4   0   1   1   1   1 3 
   2   1   2   5   0   2 23 4 
   1   3   4   0   6   1 5 
   3   0   4   2   3   3 30 11 6 
   3   4  10   3   0   1 7 
   9   0   4   6   7   3 29 13 8 
   7   5   3   0   3   2 14 9 
   3   0   3   3   3   3 20 17 10 
   3   3   3   0   7   2 28 12 
  10   4   2   0   2   2 17 15 
   9   1   0   5   3   1 15 
  10   7   0   7   5   1 14 
   1   6   2   0   5   2 20 19 
   1   0   2   5   5   1 16 
  10   2   5   4   0   1 19 
   2   2   5   7   0   1 19 
   2   5   4   0   5   1 20 
   9   5   0   2   5   1 21 
   1   5   0   2   3   1 21 
   3   3   8   6   0   1 22 
  10   5   6   4   0   1 24 
  10   4   0   3   2   1 24 
  10   4   4   0   6   2 27 25 
  10   0   5   1   6   1 26 
   6   0   3   3   2   1 32
   8   7   0   7   3   1 32
   8   0   4   2   5   1 32
   9   5   0   5   2   1 32
   4   3   5   4   0   1 32
   8   0   3   5   3   1 32
   0   0   0   0   0   0 
